maximize
OBJ:100x0 + 100x1 + 100x2 + 100x3 + 100x4 + 100x5 + 100x6 + 100x7 + 100x8 + 100x9 + 100x10 + 100x11 + 100x12 + 100x13 + 100x14 + 100x15 + 100x16 + 100x17 + 100x18 + 100x19 + 100x20 + 100x21 + 100x22 + 100x23 + 100x24 + 100x25 + 100x26 + 100x27 + 100x28 + 100x29 + 100x30 + 100x31 + 100x32 + 100x33 + 100x34 + 100x35 + 100x36 + 100x37 + 100x38 + 100x39 + 100x40 + 100x41 + 100x42 + 100x43 + 100x44 + 100x45 + 100x46 + 100x47 + 100x48 + 100x49 + 100x50 + 100x51 + 100x52 + 100x53 + 100x54 + 100x55 + 100x56 + 100x57 + 100x58 + 100x59 - y7_17 - y26_30 - y7_26 - y18_26 - y17_58 - y7_35 - y0_5 - y40_41 - y8_18 - y48_54 - y0_14 - y11_14 - y0_23 - y11_23 - y41_42 - y44_56 - y2_50 - y3_15 - y14_15 - y22_37 - y22_46 - y7_21 - y17_53 - y28_53 - y9_49 - y29_36 - y21_32 - y6_43 - y6_52 - y2_36 - y25_38 - y10_49 - y25_47 - y43_55 - y14_37 - y16_56 - y28_48 - y9_53 - y29_40 - y48_53 - y21_36 - y21_54 - y10_17 - y2_22 - y10_35 - y10_44 - y2_49 - y3_14 - y43_50 - y1_53 - y16_51 - y17_25 - y28_34 - y5_41 - y36_56 - y6_15 - y5_59 - y6_24 - y50_58 - y21_31 - y21_40 - y10_21 - y39_57 - y20_53 - y31_53 - y54_55 - y2_26 - y12_58 - y2_35 - y3_9 - y24_41 - y43_54 - y1_48 - y28_29 - y36_51 - y47_51 - y17_47 - y5_54 - y6_19 - y17_56 - y9_52 - y21_26 - y20_39 - y2_12 - y31_57 - y54_59 - y12_53 - y24_27 - y51_53 - y16_32 - y13_45 - y24_45 - y43_58 - y16_59 - y17_33 - y5_40 - y28_42 - y6_14 - y5_58 - y6_23 - y27_55 - y0_56 - y31_34 - y10_11 - y39_47 - y12_39 - y23_39 - y2_16 - y20_52 - y43_53 - y16_45 - y5_8 - y9_15 - y49_51 - y9_24 - y28_37 - y6_9 - y27_50 - y30_46 - y42_48 - y19_55 - y42_57 - y11_51 - y31_38 - y12_34 - y23_34 - y31_47 - y23_43 - y20_56 - y12_52 - y1_15 - y23_52 - y1_24 - y4_57 - y32_39 - y1_33 - y13_35 - y24_44 - y35_44 - y9_10 - y17_23 - y15_53 - y5_30 - y9_28 - y5_39 - y7_58 - y18_58 - y6_13 - y27_45 - y11_37 - y8_50 - y42_52 - y0_46 - y11_46 - y30_59 - y0_55 - y11_55 - y20_33 - y31_42 - y4_25 - y4_34 - y12_56 - y4_52 - y34_53 - y45_53 - y1_37 - y38_41 - y46_54 - y26_48 - y38_50 - y26_57 - y8_27 - y0_32 - y8_54 - y11_50 - y12_15 - y4_11 - y39_41 - y31_37 - y12_33 - y12_42 - y1_5 - y13_16 - y4_47 - y16_21 - y37_53 - y5_11 - y15_43 - y38_45 - y7_39 - y26_52 - y19_22 - y27_35 - y30_31 - y0_27 - y11_27 - y30_40 - y27_53 - y8_49 - y0_45 - y20_23 - y11_54 - y52_55 - y31_32 - y4_24 - y34_43 - y1_18 - y37_39 - y53_56 - y45_52 - y37_48 - y15_29 - y7_25 - y15_38 - y7_34 - y18_43 - y15_56 - y8_17 - y0_13 - y0_31 - y11_40 - y52_59 - y25_51 - y3_32 - y22_45 - y3_41 - y37_43 - y34_56 - y45_56 - y14_50 - y14_59 - y7_20 - y7_29 - y18_29 - y18_38 - y15_51 - y8_30 - y41_54 - y25_37 - y33_59 - y2_53 - y22_40 - y34_42 - y14_36 - y22_49 - y3_45 - y37_56 - y15_28 - y26_28 - y7_24 - y15_37 - y18_33 - y7_42 - y18_42 - y29_39 - y11_12 - y29_48 - y21_44 - y0_21 - y6_55 - y40_57 - y10_34 - y10_43 - y37_42 - y28_51 - y9_56 - y29_43 - y48_56 - y29_52 - y21_48 - y6_59 - y21_57 - y10_20 - y33_40 - y2_34 - y3_8 - y10_56 - y2_52 - y14_17 - y32_53 - y22_39 - y3_44 - y15_18 - y7_14 - y36_50 - y47_50 - y17_46 - y7_23 - y28_55 - y21_25 - y6_45 - y29_47 - y40_56 - y21_52 - y54_58 - y25_31 - y2_56 - y14_21 - y32_57 - y43_57 - y36_45 - y55_58 - y9_37 - y9_46 - y6_31 - y29_33 - y40_42 - y6_49 - y21_47 - y39_55 - y2_15 - y10_37 - y3_7 - y24_39 - y35_39 - y32_52 - y13_48 - y13_57 - y35_57 - y17_27 - y28_36 - y5_43 - y47_58 - y28_54 - y21_24 - y21_33 - y10_23 - y2_19 - y13_34 - y32_47 - y13_43 - y35_43 - y32_56 - y13_52 - y5_56 - y6_21 - y2_5 - y20_41 - y31_41 - y20_50 - y4_51 - y32_33 - y13_29 - y51_55 - y1_36 - y35_38 - y24_56 - y17_26 - y36_39 - y49_58 - y5_33 - y28_35 - y6_7 - y5_51 - y6_16 - y27_48 - y42_46 - y21_23 - y50_59 - y30_53 - y20_36 - y23_41 - y20_54 - y4_37 - y23_50 - y13_15 - y4_46 - y13_24 - y16_20 - y43_46 - y35_42 - y16_38 - y38_44 - y9_17 - y49_53 - y28_30 - y9_26 - y6_11 - y27_43 - y6_20 - y8_39 - y50_54 - y42_50 - y8_57 - y0_53 - y12_27 - y20_40 - y31_40 - y12_36 - y23_36 - y31_49 - y23_54 - y4_50 - y24_28 - y13_37 - y35_37 - y16_42 - y46_52 - y9_12 - y5_23 - y9_21 - y38_57 - y49_57 - y27_29 - y8_34 - y19_34 - y0_30 - y8_43 - y30_43 - y0_39 - y8_52 - y30_52 - y42_54 - y12_13 - y31_35 - y12_31 - y31_44 - y12_40 - y23_49 - y13_23 - y16_19 - y34_55 - y37_51 - y16_28 - y1_39 - y14_58 - y5_9 - y15_41 - y15_50 - y38_52 - y26_59 - y8_20 - y19_20 - y27_33 - y8_29 - y27_51 - y8_47 - y30_47 - y11_52 - y41_53 - y52_53 - y20_30 - y12_26 - y31_39 - y4_22 - y33_58 - y23_35 - y44_58 - y4_31 - y22_48 - y16_23 - y34_59 - y56_59 - y14_53 - y37_55 - y15_27 - y26_27 - y15_36 - y7_32 - y26_54 - y38_56 - y7_50 - y8_15 - y0_11 - y7_59 - y8_24 - y27_37 - y0_20 - y30_33 - y27_46 - y30_42 - y0_38 - y11_38 - y30_51 - y20_25 - y41_57 - y44_53 - y23_30 - y25_49 - y25_58 - y34_45 - y53_58 - y37_41 - y3_48 - y7_18 - y15_40 - y38_42 - y26_58 - y7_54 - y48_55 - y27_32 - y0_24 - y11_24 - y19_37 - y21_56 - y11_33 - y33_39 - y12_16 - y33_48 - y44_48 - y4_21 - y2_51 - y25_53 - y22_29 - y22_38 - y14_34 - y22_47 - y34_49 - y14_43 - y22_56 - y45_58 - y56_58 - y14_52 - y7_22 - y18_22 - y7_31 - y18_31 - y15_44 - y26_44 - y7_40 - y8_14 - y48_50 - y19_23 - y48_59 - y0_19 - y11_19 - y11_28 - y4_7 - y33_43 - y52_56 - y25_39 - y4_16 - y2_46 - y34_35
 Subject to
C1: x0+x1 <=1 
C2: x0+x3 <=1 
C3: x0+x5-y0_5 <=1 
C4: x0+x11-y0_11 <=1 
C5: x0+x13-y0_13 <=1 
C6: x0+x14-y0_14 <=1 
C7: x0+x17 <=1 
C8: x0+x19-y0_19 <=1 
C9: x0+x20-y0_20 <=1 
C10: x0+x21-y0_21 <=1 
C11: x0+x23-y0_23 <=1 
C12: x0+x24-y0_24 <=1 
C13: x0+x27-y0_27 <=1 
C14: x0+x28 <=1 
C15: x0+x30-y0_30 <=1 
C16: x0+x31-y0_31 <=1 
C17: x0+x32-y0_32 <=1 
C18: x0+x34 <=1 
C19: x0+x35 <=1 
C20: x0+x36 <=1 
C21: x0+x38-y0_38 <=1 
C22: x0+x39-y0_39 <=1 
C23: x0+x42 <=1 
C24: x0+x44 <=1 
C25: x0+x45-y0_45 <=1 
C26: x0+x46-y0_46 <=1 
C27: x0+x47 <=1 
C28: x0+x48 <=1 
C29: x0+x49 <=1 
C30: x0+x50 <=1 
C31: x0+x53-y0_53 <=1 
C32: x0+x55-y0_55 <=1 
C33: x0+x56-y0_56 <=1 
C34: x0+x58 <=1 
C35: x1+x2 <=1 
C36: x1+x4 <=1 
C37: x1+x5-y1_5 <=1 
C38: x1+x6 <=1 
C39: x1+x7 <=1 
C40: x1+x10 <=1 
C41: x1+x12 <=1 
C42: x1+x15-y1_15 <=1 
C43: x1+x18-y1_18 <=1 
C44: x1+x19 <=1 
C45: x1+x22 <=1 
C46: x1+x24-y1_24 <=1 
C47: x1+x25 <=1 
C48: x1+x31 <=1 
C49: x1+x33-y1_33 <=1 
C50: x1+x36-y1_36 <=1 
C51: x1+x37-y1_37 <=1 
C52: x1+x39-y1_39 <=1 
C53: x1+x40 <=1 
C54: x1+x44 <=1 
C55: x1+x46 <=1 
C56: x1+x48-y1_48 <=1 
C57: x1+x51 <=1 
C58: x1+x53-y1_53 <=1 
C59: x1+x54 <=1 
C60: x1+x56 <=1 
C61: x1+x59 <=1 
C62: x2+x4 <=1 
C63: x2+x5-y2_5 <=1 
C64: x2+x6 <=1 
C65: x2+x7 <=1 
C66: x2+x12-y2_12 <=1 
C67: x2+x14 <=1 
C68: x2+x15-y2_15 <=1 
C69: x2+x16-y2_16 <=1 
C70: x2+x19-y2_19 <=1 
C71: x2+x20 <=1 
C72: x2+x22-y2_22 <=1 
C73: x2+x26-y2_26 <=1 
C74: x2+x32 <=1 
C75: x2+x34-y2_34 <=1 
C76: x2+x35-y2_35 <=1 
C77: x2+x36-y2_36 <=1 
C78: x2+x37 <=1 
C79: x2+x39 <=1 
C80: x2+x42 <=1 
C81: x2+x44 <=1 
C82: x2+x45 <=1 
C83: x2+x46-y2_46 <=1 
C84: x2+x47 <=1 
C85: x2+x49-y2_49 <=1 
C86: x2+x50-y2_50 <=1 
C87: x2+x51-y2_51 <=1 
C88: x2+x52-y2_52 <=1 
C89: x2+x53-y2_53 <=1 
C90: x2+x56-y2_56 <=1 
C91: x2+x59 <=1 
C92: x3+x5 <=1 
C93: x3+x7-y3_7 <=1 
C94: x3+x8-y3_8 <=1 
C95: x3+x9-y3_9 <=1 
C96: x3+x11 <=1 
C97: x3+x14-y3_14 <=1 
C98: x3+x15-y3_15 <=1 
C99: x3+x18 <=1 
C100: x3+x21 <=1 
C101: x3+x23 <=1 
C102: x3+x24 <=1 
C103: x3+x30 <=1 
C104: x3+x32-y3_32 <=1 
C105: x3+x34 <=1 
C106: x3+x37 <=1 
C107: x3+x39 <=1 
C108: x3+x41-y3_41 <=1 
C109: x3+x42 <=1 
C110: x3+x43 <=1 
C111: x3+x44-y3_44 <=1 
C112: x3+x45-y3_45 <=1 
C113: x3+x46 <=1 
C114: x3+x48-y3_48 <=1 
C115: x3+x51 <=1 
C116: x3+x52 <=1 
C117: x3+x53 <=1 
C118: x3+x54 <=1 
C119: x3+x58 <=1 
C120: x3+x59 <=1 
C121: x4+x5 <=1 
C122: x4+x6 <=1 
C123: x4+x7-y4_7 <=1 
C124: x4+x8 <=1 
C125: x4+x9 <=1 
C126: x4+x11-y4_11 <=1 
C127: x4+x13 <=1 
C128: x4+x16-y4_16 <=1 
C129: x4+x18 <=1 
C130: x4+x20 <=1 
C131: x4+x21-y4_21 <=1 
C132: x4+x22-y4_22 <=1 
C133: x4+x24-y4_24 <=1 
C134: x4+x25-y4_25 <=1 
C135: x4+x26 <=1 
C136: x4+x31-y4_31 <=1 
C137: x4+x32 <=1 
C138: x4+x34-y4_34 <=1 
C139: x4+x36 <=1 
C140: x4+x37-y4_37 <=1 
C141: x4+x39 <=1 
C142: x4+x40 <=1 
C143: x4+x42 <=1 
C144: x4+x44 <=1 
C145: x4+x45 <=1 
C146: x4+x46-y4_46 <=1 
C147: x4+x47-y4_47 <=1 
C148: x4+x49 <=1 
C149: x4+x50-y4_50 <=1 
C150: x4+x51-y4_51 <=1 
C151: x4+x52-y4_52 <=1 
C152: x4+x56 <=1 
C153: x4+x57-y4_57 <=1 
C154: x5+x7 <=1 
C155: x5+x8-y5_8 <=1 
C156: x5+x9-y5_9 <=1 
C157: x5+x10 <=1 
C158: x5+x11-y5_11 <=1 
C159: x5+x12 <=1 
C160: x5+x13 <=1 
C161: x5+x17 <=1 
C162: x5+x19 <=1 
C163: x5+x21 <=1 
C164: x5+x23-y5_23 <=1 
C165: x5+x25 <=1 
C166: x5+x27 <=1 
C167: x5+x29 <=1 
C168: x5+x30-y5_30 <=1 
C169: x5+x32 <=1 
C170: x5+x33-y5_33 <=1 
C171: x5+x34 <=1 
C172: x5+x37 <=1 
C173: x5+x39-y5_39 <=1 
C174: x5+x40-y5_40 <=1 
C175: x5+x41-y5_41 <=1 
C176: x5+x43-y5_43 <=1 
C177: x5+x44 <=1 
C178: x5+x45 <=1 
C179: x5+x46 <=1 
C180: x5+x48 <=1 
C181: x5+x51-y5_51 <=1 
C182: x5+x52 <=1 
C183: x5+x53 <=1 
C184: x5+x54-y5_54 <=1 
C185: x5+x56-y5_56 <=1 
C186: x5+x58-y5_58 <=1 
C187: x5+x59-y5_59 <=1 
C188: x6+x7-y6_7 <=1 
C189: x6+x9-y6_9 <=1 
C190: x6+x11-y6_11 <=1 
C191: x6+x13-y6_13 <=1 
C192: x6+x14-y6_14 <=1 
C193: x6+x15-y6_15 <=1 
C194: x6+x16-y6_16 <=1 
C195: x6+x19-y6_19 <=1 
C196: x6+x20-y6_20 <=1 
C197: x6+x21-y6_21 <=1 
C198: x6+x23-y6_23 <=1 
C199: x6+x24-y6_24 <=1 
C200: x6+x25 <=1 
C201: x6+x26 <=1 
C202: x6+x27 <=1 
C203: x6+x29 <=1 
C204: x6+x31-y6_31 <=1 
C205: x6+x36 <=1 
C206: x6+x37 <=1 
C207: x6+x42 <=1 
C208: x6+x43-y6_43 <=1 
C209: x6+x44 <=1 
C210: x6+x45-y6_45 <=1 
C211: x6+x47 <=1 
C212: x6+x49-y6_49 <=1 
C213: x6+x50 <=1 
C214: x6+x52-y6_52 <=1 
C215: x6+x55-y6_55 <=1 
C216: x6+x58 <=1 
C217: x6+x59-y6_59 <=1 
C218: x7+x9 <=1 
C219: x7+x10 <=1 
C220: x7+x13 <=1 
C221: x7+x14-y7_14 <=1 
C222: x7+x17-y7_17 <=1 
C223: x7+x18-y7_18 <=1 
C224: x7+x19 <=1 
C225: x7+x20-y7_20 <=1 
C226: x7+x21-y7_21 <=1 
C227: x7+x22-y7_22 <=1 
C228: x7+x23-y7_23 <=1 
C229: x7+x24-y7_24 <=1 
C230: x7+x25-y7_25 <=1 
C231: x7+x26-y7_26 <=1 
C232: x7+x27 <=1 
C233: x7+x29-y7_29 <=1 
C234: x7+x31-y7_31 <=1 
C235: x7+x32-y7_32 <=1 
C236: x7+x34-y7_34 <=1 
C237: x7+x35-y7_35 <=1 
C238: x7+x37 <=1 
C239: x7+x38 <=1 
C240: x7+x39-y7_39 <=1 
C241: x7+x40-y7_40 <=1 
C242: x7+x42-y7_42 <=1 
C243: x7+x47 <=1 
C244: x7+x50-y7_50 <=1 
C245: x7+x54-y7_54 <=1 
C246: x7+x57 <=1 
C247: x7+x58-y7_58 <=1 
C248: x7+x59-y7_59 <=1 
C249: x8+x9 <=1 
C250: x8+x11 <=1 
C251: x8+x13 <=1 
C252: x8+x14-y8_14 <=1 
C253: x8+x15-y8_15 <=1 
C254: x8+x17-y8_17 <=1 
C255: x8+x18-y8_18 <=1 
C256: x8+x20-y8_20 <=1 
C257: x8+x21 <=1 
C258: x8+x24-y8_24 <=1 
C259: x8+x26 <=1 
C260: x8+x27-y8_27 <=1 
C261: x8+x29-y8_29 <=1 
C262: x8+x30-y8_30 <=1 
C263: x8+x32 <=1 
C264: x8+x33 <=1 
C265: x8+x34-y8_34 <=1 
C266: x8+x35 <=1 
C267: x8+x39-y8_39 <=1 
C268: x8+x42 <=1 
C269: x8+x43-y8_43 <=1 
C270: x8+x44 <=1 
C271: x8+x46 <=1 
C272: x8+x47-y8_47 <=1 
C273: x8+x49-y8_49 <=1 
C274: x8+x50-y8_50 <=1 
C275: x8+x51 <=1 
C276: x8+x52-y8_52 <=1 
C277: x8+x53 <=1 
C278: x8+x54-y8_54 <=1 
C279: x8+x56 <=1 
C280: x8+x57-y8_57 <=1 
C281: x9+x10-y9_10 <=1 
C282: x9+x11 <=1 
C283: x9+x12-y9_12 <=1 
C284: x9+x13 <=1 
C285: x9+x15-y9_15 <=1 
C286: x9+x17-y9_17 <=1 
C287: x9+x21-y9_21 <=1 
C288: x9+x24-y9_24 <=1 
C289: x9+x25 <=1 
C290: x9+x26-y9_26 <=1 
C291: x9+x28-y9_28 <=1 
C292: x9+x31 <=1 
C293: x9+x32 <=1 
C294: x9+x34 <=1 
C295: x9+x35 <=1 
C296: x9+x37-y9_37 <=1 
C297: x9+x38 <=1 
C298: x9+x40 <=1 
C299: x9+x43 <=1 
C300: x9+x46-y9_46 <=1 
C301: x9+x47 <=1 
C302: x9+x48 <=1 
C303: x9+x49-y9_49 <=1 
C304: x9+x51 <=1 
C305: x9+x52-y9_52 <=1 
C306: x9+x53-y9_53 <=1 
C307: x9+x55 <=1 
C308: x9+x56-y9_56 <=1 
C309: x9+x59 <=1 
C310: x10+x11-y10_11 <=1 
C311: x10+x13 <=1 
C312: x10+x14 <=1 
C313: x10+x15 <=1 
C314: x10+x16 <=1 
C315: x10+x17-y10_17 <=1 
C316: x10+x19 <=1 
C317: x10+x20-y10_20 <=1 
C318: x10+x21-y10_21 <=1 
C319: x10+x22 <=1 
C320: x10+x23-y10_23 <=1 
C321: x10+x24 <=1 
C322: x10+x25 <=1 
C323: x10+x27 <=1 
C324: x10+x28 <=1 
C325: x10+x29 <=1 
C326: x10+x32 <=1 
C327: x10+x34-y10_34 <=1 
C328: x10+x35-y10_35 <=1 
C329: x10+x36 <=1 
C330: x10+x37-y10_37 <=1 
C331: x10+x38 <=1 
C332: x10+x40 <=1 
C333: x10+x41 <=1 
C334: x10+x42 <=1 
C335: x10+x43-y10_43 <=1 
C336: x10+x44-y10_44 <=1 
C337: x10+x48 <=1 
C338: x10+x49-y10_49 <=1 
C339: x10+x50 <=1 
C340: x10+x52 <=1 
C341: x10+x56-y10_56 <=1 
C342: x10+x58 <=1 
C343: x11+x12-y11_12 <=1 
C344: x11+x14-y11_14 <=1 
C345: x11+x16 <=1 
C346: x11+x19-y11_19 <=1 
C347: x11+x21 <=1 
C348: x11+x23-y11_23 <=1 
C349: x11+x24-y11_24 <=1 
C350: x11+x26 <=1 
C351: x11+x27-y11_27 <=1 
C352: x11+x28-y11_28 <=1 
C353: x11+x29 <=1 
C354: x11+x33-y11_33 <=1 
C355: x11+x34 <=1 
C356: x11+x37-y11_37 <=1 
C357: x11+x38-y11_38 <=1 
C358: x11+x40-y11_40 <=1 
C359: x11+x43 <=1 
C360: x11+x44 <=1 
C361: x11+x46-y11_46 <=1 
C362: x11+x47 <=1 
C363: x11+x48 <=1 
C364: x11+x50-y11_50 <=1 
C365: x11+x51-y11_51 <=1 
C366: x11+x52-y11_52 <=1 
C367: x11+x54-y11_54 <=1 
C368: x11+x55-y11_55 <=1 
C369: x11+x57 <=1 
C370: x11+x59 <=1 
C371: x12+x13-y12_13 <=1 
C372: x12+x15-y12_15 <=1 
C373: x12+x16-y12_16 <=1 
C374: x12+x18 <=1 
C375: x12+x19 <=1 
C376: x12+x20 <=1 
C377: x12+x22 <=1 
C378: x12+x24 <=1 
C379: x12+x26-y12_26 <=1 
C380: x12+x27-y12_27 <=1 
C381: x12+x28 <=1 
C382: x12+x31-y12_31 <=1 
C383: x12+x33-y12_33 <=1 
C384: x12+x34-y12_34 <=1 
C385: x12+x35 <=1 
C386: x12+x36-y12_36 <=1 
C387: x12+x39-y12_39 <=1 
C388: x12+x40-y12_40 <=1 
C389: x12+x41 <=1 
C390: x12+x42-y12_42 <=1 
C391: x12+x43 <=1 
C392: x12+x44 <=1 
C393: x12+x48 <=1 
C394: x12+x49 <=1 
C395: x12+x52-y12_52 <=1 
C396: x12+x53-y12_53 <=1 
C397: x12+x55 <=1 
C398: x12+x56-y12_56 <=1 
C399: x12+x57 <=1 
C400: x12+x58-y12_58 <=1 
C401: x13+x14 <=1 
C402: x13+x15-y13_15 <=1 
C403: x13+x16-y13_16 <=1 
C404: x13+x17 <=1 
C405: x13+x19 <=1 
C406: x13+x21 <=1 
C407: x13+x22 <=1 
C408: x13+x23-y13_23 <=1 
C409: x13+x24-y13_24 <=1 
C410: x13+x25 <=1 
C411: x13+x28 <=1 
C412: x13+x29-y13_29 <=1 
C413: x13+x30 <=1 
C414: x13+x32 <=1 
C415: x13+x34-y13_34 <=1 
C416: x13+x35-y13_35 <=1 
C417: x13+x37-y13_37 <=1 
C418: x13+x38 <=1 
C419: x13+x39 <=1 
C420: x13+x43-y13_43 <=1 
C421: x13+x45-y13_45 <=1 
C422: x13+x47 <=1 
C423: x13+x48-y13_48 <=1 
C424: x13+x49 <=1 
C425: x13+x50 <=1 
C426: x13+x52-y13_52 <=1 
C427: x13+x56 <=1 
C428: x13+x57-y13_57 <=1 
C429: x13+x58 <=1 
C430: x13+x59 <=1 
C431: x14+x15-y14_15 <=1 
C432: x14+x17-y14_17 <=1 
C433: x14+x21-y14_21 <=1 
C434: x14+x22 <=1 
C435: x14+x26 <=1 
C436: x14+x27 <=1 
C437: x14+x28 <=1 
C438: x14+x30 <=1 
C439: x14+x32 <=1 
C440: x14+x33 <=1 
C441: x14+x34-y14_34 <=1 
C442: x14+x36-y14_36 <=1 
C443: x14+x37-y14_37 <=1 
C444: x14+x38 <=1 
C445: x14+x40 <=1 
C446: x14+x41 <=1 
C447: x14+x43-y14_43 <=1 
C448: x14+x49 <=1 
C449: x14+x50-y14_50 <=1 
C450: x14+x51 <=1 
C451: x14+x52-y14_52 <=1 
C452: x14+x53-y14_53 <=1 
C453: x14+x54 <=1 
C454: x14+x57 <=1 
C455: x14+x58-y14_58 <=1 
C456: x14+x59-y14_59 <=1 
C457: x15+x18-y15_18 <=1 
C458: x15+x19 <=1 
C459: x15+x20 <=1 
C460: x15+x23 <=1 
C461: x15+x24 <=1 
C462: x15+x25 <=1 
C463: x15+x26 <=1 
C464: x15+x27-y15_27 <=1 
C465: x15+x28-y15_28 <=1 
C466: x15+x29-y15_29 <=1 
C467: x15+x30 <=1 
C468: x15+x31 <=1 
C469: x15+x33 <=1 
C470: x15+x35 <=1 
C471: x15+x36-y15_36 <=1 
C472: x15+x37-y15_37 <=1 
C473: x15+x38-y15_38 <=1 
C474: x15+x40-y15_40 <=1 
C475: x15+x41-y15_41 <=1 
C476: x15+x43-y15_43 <=1 
C477: x15+x44-y15_44 <=1 
C478: x15+x50-y15_50 <=1 
C479: x15+x51-y15_51 <=1 
C480: x15+x53-y15_53 <=1 
C481: x15+x56-y15_56 <=1 
C482: x15+x57 <=1 
C483: x16+x19-y16_19 <=1 
C484: x16+x20-y16_20 <=1 
C485: x16+x21-y16_21 <=1 
C486: x16+x23-y16_23 <=1 
C487: x16+x26 <=1 
C488: x16+x27 <=1 
C489: x16+x28-y16_28 <=1 
C490: x16+x32-y16_32 <=1 
C491: x16+x33 <=1 
C492: x16+x34 <=1 
C493: x16+x35 <=1 
C494: x16+x36 <=1 
C495: x16+x37 <=1 
C496: x16+x38-y16_38 <=1 
C497: x16+x39 <=1 
C498: x16+x42-y16_42 <=1 
C499: x16+x45-y16_45 <=1 
C500: x16+x47 <=1 
C501: x16+x49 <=1 
C502: x16+x50 <=1 
C503: x16+x51-y16_51 <=1 
C504: x16+x52 <=1 
C505: x16+x53 <=1 
C506: x16+x56-y16_56 <=1 
C507: x16+x57 <=1 
C508: x16+x58 <=1 
C509: x16+x59-y16_59 <=1 
C510: x17+x19 <=1 
C511: x17+x20 <=1 
C512: x17+x21 <=1 
C513: x17+x22 <=1 
C514: x17+x23-y17_23 <=1 
C515: x17+x25-y17_25 <=1 
C516: x17+x26-y17_26 <=1 
C517: x17+x27-y17_27 <=1 
C518: x17+x28 <=1 
C519: x17+x29 <=1 
C520: x17+x33-y17_33 <=1 
C521: x17+x34 <=1 
C522: x17+x35 <=1 
C523: x17+x37 <=1 
C524: x17+x38 <=1 
C525: x17+x43 <=1 
C526: x17+x44 <=1 
C527: x17+x45 <=1 
C528: x17+x46-y17_46 <=1 
C529: x17+x47-y17_47 <=1 
C530: x17+x53-y17_53 <=1 
C531: x17+x56-y17_56 <=1 
C532: x17+x57 <=1 
C533: x17+x58-y17_58 <=1 
C534: x17+x59 <=1 
C535: x18+x21 <=1 
C536: x18+x22-y18_22 <=1 
C537: x18+x24 <=1 
C538: x18+x26-y18_26 <=1 
C539: x18+x27 <=1 
C540: x18+x29-y18_29 <=1 
C541: x18+x31-y18_31 <=1 
C542: x18+x32 <=1 
C543: x18+x33-y18_33 <=1 
C544: x18+x36 <=1 
C545: x18+x37 <=1 
C546: x18+x38-y18_38 <=1 
C547: x18+x40 <=1 
C548: x18+x41 <=1 
C549: x18+x42-y18_42 <=1 
C550: x18+x43-y18_43 <=1 
C551: x18+x44 <=1 
C552: x18+x45 <=1 
C553: x18+x47 <=1 
C554: x18+x48 <=1 
C555: x18+x50 <=1 
C556: x18+x51 <=1 
C557: x18+x52 <=1 
C558: x18+x54 <=1 
C559: x18+x55 <=1 
C560: x18+x58-y18_58 <=1 
C561: x19+x20-y19_20 <=1 
C562: x19+x22-y19_22 <=1 
C563: x19+x23-y19_23 <=1 
C564: x19+x25 <=1 
C565: x19+x27 <=1 
C566: x19+x28 <=1 
C567: x19+x31 <=1 
C568: x19+x32 <=1 
C569: x19+x34-y19_34 <=1 
C570: x19+x35 <=1 
C571: x19+x37-y19_37 <=1 
C572: x19+x44 <=1 
C573: x19+x49 <=1 
C574: x19+x55-y19_55 <=1 
C575: x19+x57 <=1 
C576: x19+x58 <=1 
C577: x20+x23-y20_23 <=1 
C578: x20+x24 <=1 
C579: x20+x25-y20_25 <=1 
C580: x20+x26 <=1 
C581: x20+x27 <=1 
C582: x20+x30-y20_30 <=1 
C583: x20+x32 <=1 
C584: x20+x33-y20_33 <=1 
C585: x20+x34 <=1 
C586: x20+x35 <=1 
C587: x20+x36-y20_36 <=1 
C588: x20+x37 <=1 
C589: x20+x38 <=1 
C590: x20+x39-y20_39 <=1 
C591: x20+x40-y20_40 <=1 
C592: x20+x41-y20_41 <=1 
C593: x20+x42 <=1 
C594: x20+x44 <=1 
C595: x20+x45 <=1 
C596: x20+x48 <=1 
C597: x20+x50-y20_50 <=1 
C598: x20+x52-y20_52 <=1 
C599: x20+x53-y20_53 <=1 
C600: x20+x54-y20_54 <=1 
C601: x20+x56-y20_56 <=1 
C602: x20+x58 <=1 
C603: x21+x23-y21_23 <=1 
C604: x21+x24-y21_24 <=1 
C605: x21+x25-y21_25 <=1 
C606: x21+x26-y21_26 <=1 
C607: x21+x30 <=1 
C608: x21+x31-y21_31 <=1 
C609: x21+x32-y21_32 <=1 
C610: x21+x33-y21_33 <=1 
C611: x21+x34 <=1 
C612: x21+x36-y21_36 <=1 
C613: x21+x38 <=1 
C614: x21+x40-y21_40 <=1 
C615: x21+x41 <=1 
C616: x21+x43 <=1 
C617: x21+x44-y21_44 <=1 
C618: x21+x47-y21_47 <=1 
C619: x21+x48-y21_48 <=1 
C620: x21+x50 <=1 
C621: x21+x51 <=1 
C622: x21+x52-y21_52 <=1 
C623: x21+x54-y21_54 <=1 
C624: x21+x55 <=1 
C625: x21+x56-y21_56 <=1 
C626: x21+x57-y21_57 <=1 
C627: x21+x58 <=1 
C628: x22+x27 <=1 
C629: x22+x29-y22_29 <=1 
C630: x22+x32 <=1 
C631: x22+x37-y22_37 <=1 
C632: x22+x38-y22_38 <=1 
C633: x22+x39-y22_39 <=1 
C634: x22+x40-y22_40 <=1 
C635: x22+x41 <=1 
C636: x22+x44 <=1 
C637: x22+x45-y22_45 <=1 
C638: x22+x46-y22_46 <=1 
C639: x22+x47-y22_47 <=1 
C640: x22+x48-y22_48 <=1 
C641: x22+x49-y22_49 <=1 
C642: x22+x51 <=1 
C643: x22+x54 <=1 
C644: x22+x55 <=1 
C645: x22+x56-y22_56 <=1 
C646: x22+x58 <=1 
C647: x22+x59 <=1 
C648: x23+x24 <=1 
C649: x23+x27 <=1 
C650: x23+x28 <=1 
C651: x23+x30-y23_30 <=1 
C652: x23+x31 <=1 
C653: x23+x33 <=1 
C654: x23+x34-y23_34 <=1 
C655: x23+x35-y23_35 <=1 
C656: x23+x36-y23_36 <=1 
C657: x23+x37 <=1 
C658: x23+x39-y23_39 <=1 
C659: x23+x41-y23_41 <=1 
C660: x23+x42 <=1 
C661: x23+x43-y23_43 <=1 
C662: x23+x45 <=1 
C663: x23+x49-y23_49 <=1 
C664: x23+x50-y23_50 <=1 
C665: x23+x52-y23_52 <=1 
C666: x23+x53 <=1 
C667: x23+x54-y23_54 <=1 
C668: x23+x55 <=1 
C669: x23+x58 <=1 
C670: x23+x59 <=1 
C671: x24+x25 <=1 
C672: x24+x26 <=1 
C673: x24+x27-y24_27 <=1 
C674: x24+x28-y24_28 <=1 
C675: x24+x30 <=1 
C676: x24+x31 <=1 
C677: x24+x33 <=1 
C678: x24+x34 <=1 
C679: x24+x35 <=1 
C680: x24+x38 <=1 
C681: x24+x39-y24_39 <=1 
C682: x24+x40 <=1 
C683: x24+x41-y24_41 <=1 
C684: x24+x44-y24_44 <=1 
C685: x24+x45-y24_45 <=1 
C686: x24+x46 <=1 
C687: x24+x56-y24_56 <=1 
C688: x24+x57 <=1 
C689: x24+x58 <=1 
C690: x25+x28 <=1 
C691: x25+x30 <=1 
C692: x25+x31-y25_31 <=1 
C693: x25+x34 <=1 
C694: x25+x35 <=1 
C695: x25+x37-y25_37 <=1 
C696: x25+x38-y25_38 <=1 
C697: x25+x39-y25_39 <=1 
C698: x25+x40 <=1 
C699: x25+x41 <=1 
C700: x25+x42 <=1 
C701: x25+x46 <=1 
C702: x25+x47-y25_47 <=1 
C703: x25+x49-y25_49 <=1 
C704: x25+x50 <=1 
C705: x25+x51-y25_51 <=1 
C706: x25+x52 <=1 
C707: x25+x53-y25_53 <=1 
C708: x25+x54 <=1 
C709: x25+x58-y25_58 <=1 
C710: x26+x27-y26_27 <=1 
C711: x26+x28-y26_28 <=1 
C712: x26+x29 <=1 
C713: x26+x30-y26_30 <=1 
C714: x26+x31 <=1 
C715: x26+x34 <=1 
C716: x26+x35 <=1 
C717: x26+x36 <=1 
C718: x26+x37 <=1 
C719: x26+x40 <=1 
C720: x26+x44-y26_44 <=1 
C721: x26+x45 <=1 
C722: x26+x47 <=1 
C723: x26+x48-y26_48 <=1 
C724: x26+x49 <=1 
C725: x26+x50 <=1 
C726: x26+x51 <=1 
C727: x26+x52-y26_52 <=1 
C728: x26+x53 <=1 
C729: x26+x54-y26_54 <=1 
C730: x26+x57-y26_57 <=1 
C731: x26+x58-y26_58 <=1 
C732: x26+x59-y26_59 <=1 
C733: x27+x29-y27_29 <=1 
C734: x27+x30 <=1 
C735: x27+x31 <=1 
C736: x27+x32-y27_32 <=1 
C737: x27+x33-y27_33 <=1 
C738: x27+x34 <=1 
C739: x27+x35-y27_35 <=1 
C740: x27+x37-y27_37 <=1 
C741: x27+x39 <=1 
C742: x27+x41 <=1 
C743: x27+x42 <=1 
C744: x27+x43-y27_43 <=1 
C745: x27+x45-y27_45 <=1 
C746: x27+x46-y27_46 <=1 
C747: x27+x47 <=1 
C748: x27+x48-y27_48 <=1 
C749: x27+x50-y27_50 <=1 
C750: x27+x51-y27_51 <=1 
C751: x27+x53-y27_53 <=1 
C752: x27+x55-y27_55 <=1 
C753: x27+x56 <=1 
C754: x27+x57 <=1 
C755: x27+x58 <=1 
C756: x27+x59 <=1 
C757: x28+x29-y28_29 <=1 
C758: x28+x30-y28_30 <=1 
C759: x28+x31 <=1 
C760: x28+x32 <=1 
C761: x28+x33 <=1 
C762: x28+x34-y28_34 <=1 
C763: x28+x35-y28_35 <=1 
C764: x28+x36-y28_36 <=1 
C765: x28+x37-y28_37 <=1 
C766: x28+x42-y28_42 <=1 
C767: x28+x43 <=1 
C768: x28+x45 <=1 
C769: x28+x46 <=1 
C770: x28+x48-y28_48 <=1 
C771: x28+x50 <=1 
C772: x28+x51-y28_51 <=1 
C773: x28+x52 <=1 
C774: x28+x53-y28_53 <=1 
C775: x28+x54-y28_54 <=1 
C776: x28+x55-y28_55 <=1 
C777: x28+x56 <=1 
C778: x28+x57 <=1 
C779: x29+x33-y29_33 <=1 
C780: x29+x36-y29_36 <=1 
C781: x29+x37 <=1 
C782: x29+x39-y29_39 <=1 
C783: x29+x40-y29_40 <=1 
C784: x29+x42 <=1 
C785: x29+x43-y29_43 <=1 
C786: x29+x44 <=1 
C787: x29+x47-y29_47 <=1 
C788: x29+x48-y29_48 <=1 
C789: x29+x49 <=1 
C790: x29+x50 <=1 
C791: x29+x52-y29_52 <=1 
C792: x29+x53 <=1 
C793: x29+x58 <=1 
C794: x30+x31-y30_31 <=1 
C795: x30+x33-y30_33 <=1 
C796: x30+x34 <=1 
C797: x30+x36 <=1 
C798: x30+x38 <=1 
C799: x30+x39 <=1 
C800: x30+x40-y30_40 <=1 
C801: x30+x42-y30_42 <=1 
C802: x30+x43-y30_43 <=1 
C803: x30+x44 <=1 
C804: x30+x45 <=1 
C805: x30+x46-y30_46 <=1 
C806: x30+x47-y30_47 <=1 
C807: x30+x51-y30_51 <=1 
C808: x30+x52-y30_52 <=1 
C809: x30+x53-y30_53 <=1 
C810: x30+x55 <=1 
C811: x30+x56 <=1 
C812: x30+x57 <=1 
C813: x30+x59-y30_59 <=1 
C814: x31+x32-y31_32 <=1 
C815: x31+x34-y31_34 <=1 
C816: x31+x35-y31_35 <=1 
C817: x31+x37-y31_37 <=1 
C818: x31+x38-y31_38 <=1 
C819: x31+x39-y31_39 <=1 
C820: x31+x40-y31_40 <=1 
C821: x31+x41-y31_41 <=1 
C822: x31+x42-y31_42 <=1 
C823: x31+x44-y31_44 <=1 
C824: x31+x45 <=1 
C825: x31+x46 <=1 
C826: x31+x47-y31_47 <=1 
C827: x31+x48 <=1 
C828: x31+x49-y31_49 <=1 
C829: x31+x50 <=1 
C830: x31+x53-y31_53 <=1 
C831: x31+x55 <=1 
C832: x31+x57-y31_57 <=1 
C833: x31+x59 <=1 
C834: x32+x33-y32_33 <=1 
C835: x32+x35 <=1 
C836: x32+x37 <=1 
C837: x32+x38 <=1 
C838: x32+x39-y32_39 <=1 
C839: x32+x42 <=1 
C840: x32+x44 <=1 
C841: x32+x45 <=1 
C842: x32+x47-y32_47 <=1 
C843: x32+x48 <=1 
C844: x32+x49 <=1 
C845: x32+x50 <=1 
C846: x32+x52-y32_52 <=1 
C847: x32+x53-y32_53 <=1 
C848: x32+x54 <=1 
C849: x32+x56-y32_56 <=1 
C850: x32+x57-y32_57 <=1 
C851: x33+x35 <=1 
C852: x33+x37 <=1 
C853: x33+x39-y33_39 <=1 
C854: x33+x40-y33_40 <=1 
C855: x33+x41 <=1 
C856: x33+x42 <=1 
C857: x33+x43-y33_43 <=1 
C858: x33+x47 <=1 
C859: x33+x48-y33_48 <=1 
C860: x33+x57 <=1 
C861: x33+x58-y33_58 <=1 
C862: x33+x59-y33_59 <=1 
C863: x34+x35-y34_35 <=1 
C864: x34+x36 <=1 
C865: x34+x37 <=1 
C866: x34+x38 <=1 
C867: x34+x39 <=1 
C868: x34+x42-y34_42 <=1 
C869: x34+x43-y34_43 <=1 
C870: x34+x45-y34_45 <=1 
C871: x34+x46 <=1 
C872: x34+x48 <=1 
C873: x34+x49-y34_49 <=1 
C874: x34+x50 <=1 
C875: x34+x51 <=1 
C876: x34+x53-y34_53 <=1 
C877: x34+x55-y34_55 <=1 
C878: x34+x56-y34_56 <=1 
C879: x34+x59-y34_59 <=1 
C880: x35+x37-y35_37 <=1 
C881: x35+x38-y35_38 <=1 
C882: x35+x39-y35_39 <=1 
C883: x35+x40 <=1 
C884: x35+x42-y35_42 <=1 
C885: x35+x43-y35_43 <=1 
C886: x35+x44-y35_44 <=1 
C887: x35+x46 <=1 
C888: x35+x48 <=1 
C889: x35+x52 <=1 
C890: x35+x54 <=1 
C891: x35+x56 <=1 
C892: x35+x57-y35_57 <=1 
C893: x35+x58 <=1 
C894: x35+x59 <=1 
C895: x36+x39-y36_39 <=1 
C896: x36+x44 <=1 
C897: x36+x45-y36_45 <=1 
C898: x36+x46 <=1 
C899: x36+x48 <=1 
C900: x36+x49 <=1 
C901: x36+x50-y36_50 <=1 
C902: x36+x51-y36_51 <=1 
C903: x36+x56-y36_56 <=1 
C904: x37+x39-y37_39 <=1 
C905: x37+x41-y37_41 <=1 
C906: x37+x42-y37_42 <=1 
C907: x37+x43-y37_43 <=1 
C908: x37+x46 <=1 
C909: x37+x47 <=1 
C910: x37+x48-y37_48 <=1 
C911: x37+x49 <=1 
C912: x37+x50 <=1 
C913: x37+x51-y37_51 <=1 
C914: x37+x53-y37_53 <=1 
C915: x37+x55-y37_55 <=1 
C916: x37+x56-y37_56 <=1 
C917: x38+x40 <=1 
C918: x38+x41-y38_41 <=1 
C919: x38+x42-y38_42 <=1 
C920: x38+x43 <=1 
C921: x38+x44-y38_44 <=1 
C922: x38+x45-y38_45 <=1 
C923: x38+x49 <=1 
C924: x38+x50-y38_50 <=1 
C925: x38+x52-y38_52 <=1 
C926: x38+x54 <=1 
C927: x38+x55 <=1 
C928: x38+x56-y38_56 <=1 
C929: x38+x57-y38_57 <=1 
C930: x39+x40 <=1 
C931: x39+x41-y39_41 <=1 
C932: x39+x42 <=1 
C933: x39+x47-y39_47 <=1 
C934: x39+x48 <=1 
C935: x39+x49 <=1 
C936: x39+x50 <=1 
C937: x39+x52 <=1 
C938: x39+x53 <=1 
C939: x39+x54 <=1 
C940: x39+x55-y39_55 <=1 
C941: x39+x56 <=1 
C942: x39+x57-y39_57 <=1 
C943: x39+x59 <=1 
C944: x40+x41-y40_41 <=1 
C945: x40+x42-y40_42 <=1 
C946: x40+x43 <=1 
C947: x40+x44 <=1 
C948: x40+x46 <=1 
C949: x40+x48 <=1 
C950: x40+x50 <=1 
C951: x40+x52 <=1 
C952: x40+x53 <=1 
C953: x40+x55 <=1 
C954: x40+x56-y40_56 <=1 
C955: x40+x57-y40_57 <=1 
C956: x40+x58 <=1 
C957: x41+x42-y41_42 <=1 
C958: x41+x43 <=1 
C959: x41+x44 <=1 
C960: x41+x49 <=1 
C961: x41+x52 <=1 
C962: x41+x53-y41_53 <=1 
C963: x41+x54-y41_54 <=1 
C964: x41+x57-y41_57 <=1 
C965: x41+x59 <=1 
C966: x42+x46-y42_46 <=1 
C967: x42+x48-y42_48 <=1 
C968: x42+x49 <=1 
C969: x42+x50-y42_50 <=1 
C970: x42+x51 <=1 
C971: x42+x52-y42_52 <=1 
C972: x42+x53 <=1 
C973: x42+x54-y42_54 <=1 
C974: x42+x55 <=1 
C975: x42+x56 <=1 
C976: x42+x57-y42_57 <=1 
C977: x42+x58 <=1 
C978: x42+x59 <=1 
C979: x43+x44 <=1 
C980: x43+x46-y43_46 <=1 
C981: x43+x47 <=1 
C982: x43+x50-y43_50 <=1 
C983: x43+x51 <=1 
C984: x43+x52 <=1 
C985: x43+x53-y43_53 <=1 
C986: x43+x54-y43_54 <=1 
C987: x43+x55-y43_55 <=1 
C988: x43+x57-y43_57 <=1 
C989: x43+x58-y43_58 <=1 
C990: x43+x59 <=1 
C991: x44+x48-y44_48 <=1 
C992: x44+x49 <=1 
C993: x44+x53-y44_53 <=1 
C994: x44+x54 <=1 
C995: x44+x55 <=1 
C996: x44+x56-y44_56 <=1 
C997: x44+x58-y44_58 <=1 
C998: x45+x46 <=1 
C999: x45+x47 <=1 
C1000: x45+x50 <=1 
C1001: x45+x52-y45_52 <=1 
C1002: x45+x53-y45_53 <=1 
C1003: x45+x54 <=1 
C1004: x45+x56-y45_56 <=1 
C1005: x45+x58-y45_58 <=1 
C1006: x46+x49 <=1 
C1007: x46+x50 <=1 
C1008: x46+x52-y46_52 <=1 
C1009: x46+x54-y46_54 <=1 
C1010: x46+x57 <=1 
C1011: x46+x58 <=1 
C1012: x47+x50-y47_50 <=1 
C1013: x47+x51-y47_51 <=1 
C1014: x47+x53 <=1 
C1015: x47+x54 <=1 
C1016: x47+x57 <=1 
C1017: x47+x58-y47_58 <=1 
C1018: x47+x59 <=1 
C1019: x48+x49 <=1 
C1020: x48+x50-y48_50 <=1 
C1021: x48+x51 <=1 
C1022: x48+x52 <=1 
C1023: x48+x53-y48_53 <=1 
C1024: x48+x54-y48_54 <=1 
C1025: x48+x55-y48_55 <=1 
C1026: x48+x56-y48_56 <=1 
C1027: x48+x57 <=1 
C1028: x48+x59-y48_59 <=1 
C1029: x49+x51-y49_51 <=1 
C1030: x49+x52 <=1 
C1031: x49+x53-y49_53 <=1 
C1032: x49+x55 <=1 
C1033: x49+x56 <=1 
C1034: x49+x57-y49_57 <=1 
C1035: x49+x58-y49_58 <=1 
C1036: x49+x59 <=1 
C1037: x50+x53 <=1 
C1038: x50+x54-y50_54 <=1 
C1039: x50+x57 <=1 
C1040: x50+x58-y50_58 <=1 
C1041: x50+x59-y50_59 <=1 
C1042: x51+x53-y51_53 <=1 
C1043: x51+x54 <=1 
C1044: x51+x55-y51_55 <=1 
C1045: x51+x57 <=1 
C1046: x51+x59 <=1 
C1047: x52+x53-y52_53 <=1 
C1048: x52+x55-y52_55 <=1 
C1049: x52+x56-y52_56 <=1 
C1050: x52+x57 <=1 
C1051: x52+x59-y52_59 <=1 
C1052: x53+x54 <=1 
C1053: x53+x56-y53_56 <=1 
C1054: x53+x57 <=1 
C1055: x53+x58-y53_58 <=1 
C1056: x54+x55-y54_55 <=1 
C1057: x54+x57 <=1 
C1058: x54+x58-y54_58 <=1 
C1059: x54+x59-y54_59 <=1 
C1060: x55+x57 <=1 
C1061: x55+x58-y55_58 <=1 
C1062: x55+x59 <=1 
C1063: x56+x58-y56_58 <=1 
C1064: x56+x59-y56_59 <=1 

binary
x0
x1
x2
x3
x4
x5
x6
x7
x8
x9
x10
x11
x12
x13
x14
x15
x16
x17
x18
x19
x20
x21
x22
x23
x24
x25
x26
x27
x28
x29
x30
x31
x32
x33
x34
x35
x36
x37
x38
x39
x40
x41
x42
x43
x44
x45
x46
x47
x48
x49
x50
x51
x52
x53
x54
x55
x56
x57
x58
x59
